Input: forum-14.prec25.dzn
============================================================
Total Runtime: 11.5580 seconds
Input parsing: 0.0013 seconds
Constraint building: 2.4871 seconds
MaxSAT solving: 7.5450 seconds
============================================================

Total variables: 656836
Total clauses: 1178065
MaxSAT found with cost: 0
NO SOLUTION FOUND
